Version identifier: 12.10.0.0 | 2019-11-26 | 843d4de
CPXPARAM_WorkMem                                 16384
CPXPARAM_MIP_Limits_TreeMemory                   24576
Tried aggregator 2 times.
Aggregator did 100 substitutions.
Reduced MIP has 323 rows, 360 columns, and 1503 nonzeros.
Reduced MIP has 360 binaries, 0 generals, 0 SOSs, and 0 indicators.
Presolve time = 0,00 sec. (1,48 ticks)
Found incumbent of value 1083,000000 after 0,01 sec. (2,27 ticks)
Probing time = 0,00 sec. (0,71 ticks)
Tried aggregator 1 time.
Detecting symmetries...
MIP Presolve eliminated 69 rows and 0 columns.
MIP Presolve added 138 rows and 0 columns.
Reduced MIP has 392 rows, 360 columns, and 1572 nonzeros.
Reduced MIP has 360 binaries, 0 generals, 0 SOSs, and 0 indicators.
Presolve time = 0,00 sec. (1,75 ticks)
Probing time = 0,00 sec. (0,70 ticks)
Clique table members: 1103.
MIP emphasis: balance optimality and feasibility.
MIP search method: dynamic search.
Parallel mode: deterministic, using up to 16 threads.
Root relaxation solution time = 0,00 sec. (1,75 ticks)

        Nodes                                         Cuts/
   Node  Left     Objective  IInf  Best Integer    Best Bound    ItCnt     Gap

*     0+    0                         1083,0000        0,0000           100,00%
*     0+    0                          647,0000        0,0000           100,00%
      0     0      361,0000   240      647,0000      361,0000      134   44,20%
*     0+    0                          631,0000      361,0000            42,79%
      0     0      361,0000   240      631,0000      Cuts: 10      183   42,79%
      0     0      361,7000   240      631,0000      Fract: 4      195   42,68%
      0     0      362,3455   240      631,0000       Cuts: 3      206   42,58%
      0     0      362,7302   240      631,0000       Cuts: 2      212   42,52%
      0     0      362,8181   240      631,0000      Fract: 1      218   42,50%
Detecting symmetries...
      0     0      362,9084   240      631,0000       Cuts: 2      221   42,49%
*     0+    0                          628,0000      362,9084            42,21%
*     0+    0                          624,0000      362,9084            41,84%
*     0+    0                          616,0000      362,9084            41,09%
Detecting symmetries...
      0     2      362,9084   360      616,0000      363,9289      221   40,92%
Elapsed time = 0,14 sec. (63,81 ticks, tree = 0,02 MB, solutions = 6)
*    53+    9                          611,0000      384,5556            37,06%
*   339+  150                          605,0000      396,6250            34,44%
*  2262+ 1273                          595,0000      433,0688            27,22%
   3381  1783        cutoff            595,0000      457,3616    70891   23,13%

Performing restart 1

Repeating presolve.
Tried aggregator 1 time.
Reduced MIP has 392 rows, 360 columns, and 1572 nonzeros.
Reduced MIP has 360 binaries, 0 generals, 0 SOSs, and 0 indicators.
Presolve time = 0,00 sec. (0,95 ticks)
Tried aggregator 1 time.
Reduced MIP has 392 rows, 360 columns, and 1572 nonzeros.
Reduced MIP has 360 binaries, 0 generals, 0 SOSs, and 0 indicators.
Presolve time = 0,00 sec. (1,17 ticks)
Represolve time = 0,01 sec. (7,47 ticks)
   4568     0      366,1038   360      595,0000      Fract: 4   103771   19,20%
   4568     0      366,6969   360      595,0000       Cuts: 4   103789   19,20%
   4568     0      366,9354   360      595,0000       Cuts: 6   103818   19,20%
   4568     0      367,5651   360      595,0000       Cuts: 5   103852   19,20%
   4568     0      368,8589   360      595,0000       Cuts: 5   103897   19,20%
   4568     2      368,8589   360      595,0000      480,7857   103897   19,20%
   5241   207      383,3115   235      595,0000      480,7857   115437   19,20%
   6587  1231      536,6458    76      595,0000      480,7857   167375   19,20%
   8606  2875      502,7269   167      595,0000      480,7857   236472   19,20%
  10522  4237      540,5770   197      595,0000      480,7857   295311   19,20%

Performing restart 2

Repeating presolve.
Tried aggregator 1 time.
Reduced MIP has 392 rows, 360 columns, and 1572 nonzeros.
Reduced MIP has 360 binaries, 0 generals, 0 SOSs, and 0 indicators.
Presolve time = 0,00 sec. (0,95 ticks)
Tried aggregator 1 time.
Reduced MIP has 392 rows, 360 columns, and 1572 nonzeros.
Reduced MIP has 360 binaries, 0 generals, 0 SOSs, and 0 indicators.
Presolve time = 0,00 sec. (1,17 ticks)
Represolve time = 0,03 sec. (19,73 ticks)
  10585     0      371,8730   358      595,0000       Cuts: 5   317992   19,20%
  10585     0      372,2283   358      595,0000       Cuts: 7   318021   19,20%
  10585     0      372,3961   358      595,0000       Cuts: 4   318035   19,20%
  10585     0      372,6070   358      595,0000       Cuts: 4   318071   19,20%
  10585     0      372,7999   358      595,0000       Cuts: 9   318128   19,20%
  10585     0      373,7948   358      595,0000      Fract: 5   318175   19,20%
  10585     0      374,8064   358      595,0000       Cuts: 4   318238   19,20%
  10585     2      374,8064   357      595,0000      480,7857   318238   19,20%
  13330  1192      564,5000    58      595,0000      480,7857   382717   19,20%
  15176  2508      549,9013   132      595,0000      480,7857   453224   19,20%
  24018  6642      581,8718    82      595,0000      531,1111   734537   10,74%
Elapsed time = 4,91 sec. (3856,44 ticks, tree = 12,64 MB, solutions = 10)
  32254  6571        cutoff            595,0000      565,5000  1014365    4,96%

Cover cuts applied:  826
Mixed integer rounding cuts applied:  21
Zero-half cuts applied:  1
Lift and project cuts applied:  2
Gomory fractional cuts applied:  50

Root node processing (before b&c):
  Real time             =    0,13 sec. (63,56 ticks)
Parallel b&c, 16 threads:
  Real time             =    6,99 sec. (5181,06 ticks)
  Sync time (average)   =    1,84 sec.
  Wait time (average)   =    0,01 sec.
                          ------------
Total (root+branch&cut) =    7,13 sec. (5244,62 ticks)
